\ENCODING=ISO-8859-1
\Problem name: IloCplex

Maximize
 obj: 398 vnp2#0 - 58 pi0_k7#1 - 54 pi5_k8#2 - 33 pi6_k9#3 + 944 vnp3#4
      - 104 pi11_k10#5 - 50 pi12_k11#6 - 48 pi17_k12#7 - 167 pi22_k13#8
      + 803 vnp7#9 - 129 pi27_k25#10 - 130 pi32_k26#11 - 189 pi33_k27#12
      + 1166 vnp10#13 - 101 pi38_k36#14 - 142 pi43_k37#15 - 91 pi48_k38#16
      - 17 pi53_k39#17 - 142 pi54_k40#18 + 813 vnp12#19 - 83 pi59_k47#20
      - 80 pi64_k48#21 - 116 pi65_k49#22 + 292 vnp13#23 - 56 pi70_k50#24
      - 72 pi74_k51#25 - 23 pi79_k52#26 + 712 vnp15#27 - 15 pi84_k57#28
      - 103 pi85_k58#29 - 62 pi90_k59#30 - 38 pi95_k60#31 - 42 pi100_k61#32
      + 667 vnp16#33 - 133 pi105_k62#34 - 105 pi110_k63#35 - 87 pi115_k64#36
      - 47 pi120_k65#37 + 410 vnp18#38 - 42 pi121_k70#39 - 79 pi124_k71#40
      - 103 pi129_k72#41 + 433 vnp19#42 - 11 pi130_k73#43 - 210 pi131_k74#44
      - 115 pi136_k75#45 + 1506 vnp20#46 - 46 pi141_k76#47 - 102 pi146_k77#48
      - 85 pi151_k78#49 - 42 pi155_k79#50 - 94 pi160_k80#51 - 138 pi164_k81#52
      - 74 pi81_k52#53 - 128 pi92_k59#54 - 108 pi122_k70#55 - 85 pi128_k71#56
      - 79 pi143_k76#57 - 357 pi148_k77#58 - 259 pi162_k80#59 - 57 pi72_k50#60
      - 91 pi87_k58#61 - 103 pi4_k7#62 - 164 pi25_k13#63 - 166 pi46_k37#64
      - 92 pi93_k59#65 - 53 pi99_k60#66 - 40 pi101_k61#67 - 201 pi133_k74#68
      - 123 pi140_k75#69 - 61 pi144_k76#70 - 159 pi36_k27#71 - 166 pi45_k37#72
      - 56 pi83_k52#73 - 47 pi98_k60#74 - 267 pi150_k77#75 - 144 pi31_k25#76
      - 133 pi86_k58#77 - 109 pi125_k71#78 - 97 pi1_k7#79 - 44 pi8_k9#80
      - 204 pi30_k25#81 - 145 pi40_k36#82 - 42 pi96_k60#83 - 89 pi126_k71#84
      - 23 pi80_k52#85 - 84 pi123_k70#86 - 121 pi127_k71#87 - 102 pi147_k77#88
      - 199 pi161_k80#89 - 149 pi28_k25#90 - 239 pi34_k27#91 - 146 pi49_k38#92
      - 197 pi57_k40#93 - 51 pi97_k60#94 - 121 pi3_k7#95 - 54 pi10_k9#96
      - 58 pi14_k11#97 - 63 pi18_k12#98 - 57 pi102_k61#99 - 145 pi152_k78#100
      - 223 pi165_k81#101 - 104 pi24_k13#102 - 174 pi37_k27#103
      - 111 pi132_k74#104 - 154 pi163_k80#105 - 46 pi7_k9#106
      - 153 pi42_k36#107 - 146 pi52_k38#108 - 124 pi89_k58#109
      - 92 pi56_k40#110 - 175 pi113_k63#111 - 238 pi44_k37#112
      - 217 pi55_k40#113 - 202 pi88_k58#114 - 71 pi117_k64#115
      - 169 pi29_k25#116 - 67 pi116_k64#117 - 160 pi112_k63#118
      - 137 pi62_k47#119 - 133 pi138_k75#120 - 219 pi35_k27#121
      - 170 pi23_k13#122 - 217 pi58_k40#123 - 175 pi111_k63#124
      - 117 pi137_k75#125 - 211 pi50_k38#126 - 116 pi63_k47#127
      - 73 pi119_k64#128 - 137 pi139_k75#129 - 63 pi16_k11#130
      - 88 pi94_k59#131 - 55 pi103_k61#132 - 59 pi145_k76#133
      - 297 pi154_k78#134 - 288 pi167_k81#135 - 112 pi2_k7#136 - 51 pi9_k9#137
      - 76 pi19_k12#138 - 197 pi39_k36#139 - 171 pi51_k38#140 - 45 pi82_k52#141
      - 162 pi135_k74#142 - 212 pi149_k77#143 - 37 pi13_k11#144
      - 140 pi26_k13#145 - 58 pi91_k59#146 - 40 pi104_k61#147
      - 44 pi142_k76#148 - 213 pi168_k81#149 - 48 pi15_k11#150
      - 59 pi21_k12#151 - 78 pi77_k51#152 - 38 pi156_k79#153 - 137 pi60_k47#154
      - 188 pi67_k49#155 - 223 pi107_k62#156 - 72 pi75_k51#157
      - 215 pi114_k63#158 - 56 pi71_k50#159 - 246 pi47_k37#160
      - 124 pi66_k49#161 - 143 pi106_k62#162 - 75 pi118_k64#163
      - 89 pi61_k47#164 - 124 pi68_k49#165 - 143 pi108_k62#166
      - 189 pi41_k36#167 - 44 pi157_k79#168 - 213 pi166_k81#169
      - 105 pi76_k51#170 - 71 pi159_k79#171 - 129 pi134_k74#172
      - 132 pi78_k51#173 - 129 pi153_k78#174 - 49 pi158_k79#175
      - 47 pi20_k12#176 - 124 pi69_k49#177 - 57 pi73_k50#178
      - 143 pi109_k62#179
Subject To
 _Embedding_clash_const_of_vlink7_vnp_2#0: vnp2#0 - pi0_k7#1 <= 0
 _Embedding_clash_const_of_vlink8_vnp_2#1: vnp2#0 - pi5_k8#2 <= 0
 _Embedding_clash_const_of_vlink9_vnp_2#2: vnp2#0 - pi6_k9#3 <= 0
 _Embedding_clash_const_of_vlink10_vnp_3#3: vnp3#4 - pi11_k10#5 <= 0
 _Embedding_clash_const_of_vlink11_vnp_3#4: vnp3#4 - pi12_k11#6 <= 0
 _Embedding_clash_const_of_vlink12_vnp_3#5: vnp3#4 - pi17_k12#7 <= 0
 _Embedding_clash_const_of_vlink13_vnp_3#6: vnp3#4 - pi22_k13#8 <= 0
 _Embedding_clash_const_of_vlink25_vnp_7#7: vnp7#9 - pi27_k25#10 <= 0
 _Embedding_clash_const_of_vlink26_vnp_7#8: vnp7#9 - pi32_k26#11 <= 0
 _Embedding_clash_const_of_vlink27_vnp_7#9: vnp7#9 - pi33_k27#12 <= 0
 _Embedding_clash_const_of_vlink36_vnp_10#10: vnp10#13 - pi38_k36#14 <= 0
 _Embedding_clash_const_of_vlink37_vnp_10#11: vnp10#13 - pi43_k37#15 <= 0
 _Embedding_clash_const_of_vlink38_vnp_10#12: vnp10#13 - pi48_k38#16 <= 0
 _Embedding_clash_const_of_vlink39_vnp_10#13: vnp10#13 - pi53_k39#17 <= 0
 _Embedding_clash_const_of_vlink40_vnp_10#14: vnp10#13 - pi54_k40#18 <= 0
 _Embedding_clash_const_of_vlink47_vnp_12#15: vnp12#19 - pi59_k47#20 <= 0
 _Embedding_clash_const_of_vlink48_vnp_12#16: vnp12#19 - pi64_k48#21 <= 0
 _Embedding_clash_const_of_vlink49_vnp_12#17: vnp12#19 - pi65_k49#22 <= 0
 _Embedding_clash_const_of_vlink50_vnp_13#18: vnp13#23 - pi70_k50#24 <= 0
 _Embedding_clash_const_of_vlink51_vnp_13#19: vnp13#23 - pi74_k51#25 <= 0
 _Embedding_clash_const_of_vlink52_vnp_13#20: vnp13#23 - pi79_k52#26 <= 0
 _Embedding_clash_const_of_vlink57_vnp_15#21: vnp15#27 - pi84_k57#28 <= 0
 _Embedding_clash_const_of_vlink58_vnp_15#22: vnp15#27 - pi85_k58#29 <= 0
 _Embedding_clash_const_of_vlink59_vnp_15#23: vnp15#27 - pi90_k59#30 <= 0
 _Embedding_clash_const_of_vlink60_vnp_15#24: vnp15#27 - pi95_k60#31 <= 0
 _Embedding_clash_const_of_vlink61_vnp_15#25: vnp15#27 - pi100_k61#32 <= 0
 _Embedding_clash_const_of_vlink62_vnp_16#26: vnp16#33 - pi105_k62#34 <= 0
 _Embedding_clash_const_of_vlink63_vnp_16#27: vnp16#33 - pi110_k63#35 <= 0
 _Embedding_clash_const_of_vlink64_vnp_16#28: vnp16#33 - pi115_k64#36 <= 0
 _Embedding_clash_const_of_vlink65_vnp_16#29: vnp16#33 - pi120_k65#37 <= 0
 _Embedding_clash_const_of_vlink70_vnp_18#30: vnp18#38 - pi121_k70#39 <= 0
 _Embedding_clash_const_of_vlink71_vnp_18#31: vnp18#38 - pi124_k71#40 <= 0
 _Embedding_clash_const_of_vlink72_vnp_18#32: vnp18#38 - pi129_k72#41 <= 0
 _Embedding_clash_const_of_vlink73_vnp_19#33: vnp19#42 - pi130_k73#43 <= 0
 _Embedding_clash_const_of_vlink74_vnp_19#34: vnp19#42 - pi131_k74#44 <= 0
 _Embedding_clash_const_of_vlink75_vnp_19#35: vnp19#42 - pi136_k75#45 <= 0
 _Embedding_clash_const_of_vlink76_vnp_20#36: vnp20#46 - pi141_k76#47 <= 0
 _Embedding_clash_const_of_vlink77_vnp_20#37: vnp20#46 - pi146_k77#48 <= 0
 _Embedding_clash_const_of_vlink78_vnp_20#38: vnp20#46 - pi151_k78#49 <= 0
 _Embedding_clash_const_of_vlink79_vnp_20#39: vnp20#46 - pi155_k79#50 <= 0
 _Embedding_clash_const_of_vlink80_vnp_20#40: vnp20#46 - pi160_k80#51 <= 0
 _Embedding_clash_const_of_vlink81_vnp_20#41: vnp20#46 - pi164_k81#52 <= 0
 BW_capacity_of_substrate_link_1#42: pi70_k50#24 + 3 pi85_k58#29
                                 + 5 pi129_k72#41 + pi81_k52#53 + 2 pi92_k59#54
                                 + 2 pi122_k70#55 + 2 pi128_k71#56
                                 + pi143_k76#57 + 5 pi148_k77#58
                                 + 5 pi162_k80#59 <= 20
 BW_capacity_of_substrate_link_2#43: pi79_k52#26 + 2 pi84_k57#28
                                 + 2 pi90_k59#30 + 2 pi121_k70#39
                                 + pi141_k76#47 + 5 pi146_k77#48
                                 + 5 pi160_k80#51 + 2 pi128_k71#56
                                 + pi72_k50#60 + 3 pi87_k58#61 <= 20
 BW_capacity_of_substrate_link_3#44: 5 pi33_k27#12 + pi79_k52#26
                                 + 2 pi121_k70#39 + 2 pi124_k71#40
                                 + 5 pi146_k77#48 + 5 pi160_k80#51
                                 + 3 pi4_k7#62 + 3 pi25_k13#63 + 4 pi46_k37#64
                                 + 2 pi93_k59#65 + pi99_k60#66 + pi101_k61#67
                                 + 3 pi133_k74#68 + 2 pi140_k75#69
                                 + pi144_k76#70 <= 20
 BW_capacity_of_substrate_link_4#45: 2 pi121_k70#39 + 2 pi124_k71#40
                                 + 3 pi131_k74#44 + 2 pi136_k75#45
                                 + 4 pi151_k78#49 + 5 pi160_k80#51
                                 + 5 pi164_k81#52 <= 20
 BW_capacity_of_substrate_link_5#46: 2 pi124_k71#40 + 2 pi92_k59#54
                                 + 2 pi122_k70#55 + pi143_k76#57
                                 + 5 pi162_k80#59 + pi72_k50#60
                                 + 3 pi133_k74#68 + 5 pi36_k27#71
                                 + 4 pi45_k37#72 + pi83_k52#73 + pi98_k60#74
                                 + 5 pi150_k77#75 <= 20
 BW_capacity_of_substrate_link_6#47: 4 pi43_k37#15 + pi53_k39#17
                                 + 5 pi54_k40#18 + 5 pi31_k25#76
                                 + 3 pi86_k58#77 + 2 pi125_k71#78 <= 20
 BW_capacity_of_substrate_link_7#48: 2 pi5_k8#2 + 5 pi33_k27#12 + 3 pi87_k58#61
                                 + 2 pi140_k75#69 + 3 pi1_k7#79 + pi8_k9#80
                                 + 5 pi30_k25#81 + 4 pi40_k36#82 + pi96_k60#83
                                 + 2 pi126_k71#84 <= 20
 BW_capacity_of_substrate_link_8#49: 3 pi0_k7#1 + 2 pi90_k59#30 + pi95_k60#31
                                 + pi100_k61#32 + pi141_k76#47 + 3 pi25_k13#63
                                 + 4 pi45_k37#72 + pi8_k9#80 + 5 pi30_k25#81
                                 + 4 pi40_k36#82 + pi80_k52#85 + 2 pi123_k70#86
                                 + 2 pi127_k71#87 + 5 pi147_k77#88
                                 + 5 pi161_k80#89 <= 20
 BW_capacity_of_substrate_link_9#50: pi6_k9#3 + 4 pi38_k36#14 + 4 pi43_k37#15
                                 + 2 pi125_k71#78 + 3 pi1_k7#79 + 5 pi28_k25#90
                                 + 5 pi34_k27#91 + 5 pi49_k38#92
                                 + 5 pi57_k40#93 + pi97_k60#94 <= 20
 BW_capacity_of_substrate_link_10#51: 4 pi11_k10#5 + 3 pi22_k13#8
                                 + 5 pi32_k26#11 + 3 pi131_k74#44
                                 + 2 pi136_k75#45 + 2 pi93_k59#65 + pi99_k60#66
                                 + pi144_k76#70 + 2 pi125_k71#78
                                 + 2 pi123_k70#86 + 5 pi161_k80#89
                                 + 5 pi34_k27#91 + 3 pi3_k7#95 + pi10_k9#96
                                 + pi14_k11#97 + pi18_k12#98 + pi102_k61#99
                                 + 4 pi152_k78#100 + 5 pi165_k81#101 <= 20
 BW_capacity_of_substrate_link_11#52: pi17_k12#7 + pi79_k52#26 + 5 pi146_k77#48
                                 + 4 pi151_k78#49 + 5 pi164_k81#52
                                 + 4 pi46_k37#64 + pi101_k61#67 + 3 pi3_k7#95
                                 + pi10_k9#96 + pi14_k11#97 + 3 pi24_k13#102
                                 + 5 pi37_k27#103 + 3 pi132_k74#104
                                 + 5 pi163_k80#105 <= 20
 BW_capacity_of_substrate_link_12#53: 5 pi48_k38#16 + 5 pi54_k40#18
                                 + 2 pi140_k75#69 + 3 pi86_k58#77 + pi96_k60#83
                                 + pi7_k9#106 + 4 pi42_k36#107 <= 20
 BW_capacity_of_substrate_link_13#54: 5 pi33_k27#12 + 5 pi28_k25#90
                                 + 5 pi52_k38#108 + 3 pi89_k58#109 <= 20
 BW_capacity_of_substrate_link_14#55: 3 pi85_k58#29 + 5 pi36_k27#71
                                 + pi98_k60#74 + 5 pi31_k25#76 + 5 pi56_k40#110
                                 + 5 pi113_k63#111 <= 20
 BW_capacity_of_substrate_link_15#56: pi70_k50#24 + pi81_k52#53
                                 + 5 pi148_k77#58 + 3 pi133_k74#68
                                 + 5 pi113_k63#111 + 4 pi44_k37#112
                                 + 5 pi55_k40#113 + 3 pi88_k58#114 <= 20
 BW_capacity_of_substrate_link_16#57: 5 pi110_k63#35 + 4 pi120_k65#37
                                 + 2 pi117_k64#115 <= 20
 BW_capacity_of_substrate_link_17#58: 5 pi29_k25#116 + 2 pi116_k64#117 <= 20
 BW_capacity_of_substrate_link_18#59: 4 pi64_k48#21 + 3 pi88_k58#114
                                 + 5 pi112_k63#118 <= 20
 BW_capacity_of_substrate_link_19#60: 3 pi88_k58#114 + 5 pi29_k25#116
                                 + 5 pi112_k63#118 + 3 pi62_k47#119
                                 + 2 pi138_k75#120 <= 20
 BW_capacity_of_substrate_link_20#61: 5 pi27_k25#10 + 3 pi85_k58#29
                                 + 5 pi110_k63#35 + 2 pi115_k64#36
                                 + pi98_k60#74 + 5 pi52_k38#108
                                 + 5 pi56_k40#110 + 5 pi35_k27#121 <= 20
 BW_capacity_of_substrate_link_21#62: 2 pi115_k64#36 + 3 pi62_k47#119
                                 + 3 pi23_k13#122 + 5 pi58_k40#123
                                 + 5 pi111_k63#124 + 2 pi137_k75#125 <= 20
 BW_capacity_of_substrate_link_22#63: 5 pi27_k25#10 + pi95_k60#31 + pi7_k9#106
                                 + 4 pi42_k36#107 + 5 pi35_k27#121
                                 + 3 pi23_k13#122 + 2 pi137_k75#125
                                 + 5 pi50_k38#126 <= 20
 BW_capacity_of_substrate_link_23#64: 5 pi48_k38#16 + 5 pi54_k40#18
                                 + 3 pi63_k47#127 + 2 pi119_k64#128
                                 + 2 pi139_k75#129 <= 20
 BW_capacity_of_substrate_link_24#65: 3 pi22_k13#8 + 3 pi131_k74#44
                                 + 2 pi136_k75#45 + 5 pi49_k38#92
                                 + 5 pi57_k40#93 + pi16_k11#130
                                 + 2 pi94_k59#131 + pi103_k61#132
                                 + pi145_k76#133 + 4 pi154_k78#134
                                 + 5 pi167_k81#135 <= 20
 BW_capacity_of_substrate_link_25#66: pi12_k11#6 + 2 pi90_k59#30 + pi100_k61#32
                                 + pi141_k76#47 + 5 pi165_k81#101
                                 + 3 pi2_k7#136 + pi9_k9#137 + pi19_k12#138
                                 + 4 pi39_k36#139 + 5 pi51_k38#140
                                 + pi82_k52#141 + 3 pi135_k74#142
                                 + 5 pi149_k77#143 <= 20
 BW_capacity_of_substrate_link_26#67: 3 pi0_k7#1 + pi6_k9#3 + 4 pi38_k36#14
                                 + 4 pi43_k37#15 + pi80_k52#85 + 5 pi147_k77#88
                                 + pi18_k12#98 + 4 pi152_k78#100
                                 + 5 pi37_k27#103 + 5 pi163_k80#105
                                 + pi13_k11#144 + 3 pi26_k13#145
                                 + 2 pi91_k59#146 + pi104_k61#147
                                 + pi142_k76#148 + 5 pi168_k81#149 <= 20
 BW_capacity_of_substrate_link_27#68: 5 pi164_k81#52 + pi101_k61#67
                                 + 3 pi24_k13#102 + 3 pi132_k74#104
                                 + 3 pi2_k7#136 + pi9_k9#137 + 2 pi91_k59#146
                                 + pi142_k76#148 + pi15_k11#150 + pi21_k12#151
                                 + 3 pi77_k51#152 + pi156_k79#153 <= 20
 BW_capacity_of_substrate_link_28#69: pi16_k11#130 + 2 pi94_k59#131
                                 + pi103_k61#132 + pi145_k76#133
                                 + 5 pi167_k81#135 + 5 pi51_k38#140 <= 20
 BW_capacity_of_substrate_link_29#70: 3 pi131_k74#44 + 2 pi119_k64#128
                                 + 4 pi154_k78#134 + 3 pi60_k47#154
                                 + 4 pi67_k49#155 + 5 pi107_k62#156 <= 20
 BW_capacity_of_substrate_link_30#71: 3 pi22_k13#8 + 2 pi136_k75#45
                                 + 5 pi55_k40#113 + 3 pi60_k47#154
                                 + 4 pi67_k49#155 + 5 pi107_k62#156 <= 20
 BW_capacity_of_substrate_link_31#72: 3 pi59_k47#20 + 4 pi65_k49#22
                                 + 5 pi105_k62#34 + 2 pi115_k64#36
                                 + pi81_k52#53 + 5 pi148_k77#58
                                 + 3 pi24_k13#102 + 4 pi44_k37#112
                                 + 3 pi75_k51#157 <= 20
 BW_capacity_of_substrate_link_32#73: 3 pi59_k47#20 + 2 pi116_k64#117
                                 + 2 pi138_k75#120 + 5 pi114_k63#158 <= 20
 BW_capacity_of_substrate_link_33#74: 4 pi65_k49#22 + 5 pi105_k62#34
                                 + pi81_k52#53 + 5 pi148_k77#58
                                 + 4 pi44_k37#112 + 5 pi55_k40#113
                                 + 2 pi117_k64#115 + 5 pi111_k63#124
                                 + pi71_k50#159 <= 20
 BW_capacity_of_substrate_link_34#75: pi70_k50#24 + 3 pi133_k74#68
                                 + 4 pi47_k37#160 + 4 pi66_k49#161
                                 + 5 pi106_k62#162 + 2 pi118_k64#163 <= 20
 BW_capacity_of_substrate_link_35#76: 4 pi130_k73#43 + 3 pi75_k51#157
                                 + pi71_k50#159 + 3 pi61_k47#164
                                 + 4 pi68_k49#165 + 5 pi108_k62#166 <= 20
 BW_capacity_of_substrate_link_36#77: 3 pi74_k51#25 + 3 pi131_k74#44
                                 + 4 pi47_k37#160 + 4 pi66_k49#161
                                 + 5 pi106_k62#162 + 2 pi118_k64#163
                                 + 3 pi61_k47#164 <= 20
 BW_capacity_of_substrate_link_37#78: pi155_k79#50 + 3 pi24_k13#102
                                 + 3 pi132_k74#104 + pi82_k52#141
                                 + 5 pi149_k77#143 + 3 pi77_k51#152
                                 + 4 pi41_k36#167 <= 20
 BW_capacity_of_substrate_link_38#79: pi12_k11#6 + pi19_k12#138
                                 + 4 pi39_k36#139 + pi157_k79#168
                                 + 5 pi166_k81#169 <= 20
 BW_capacity_of_substrate_link_39#80: 3 pi76_k51#170 + pi159_k79#171 <= 20
 BW_capacity_of_substrate_link_40#81: 3 pi74_k51#25 + pi155_k79#50
                                 + pi81_k52#53 + 5 pi148_k77#58
                                 + 4 pi44_k37#112 + 4 pi154_k78#134
                                 + 4 pi41_k36#167 + 3 pi134_k74#172 <= 20
 BW_capacity_of_substrate_link_41#82: pi17_k12#7 + pi13_k11#144
                                 + 5 pi166_k81#169 + 3 pi78_k51#173
                                 + 4 pi153_k78#174 + pi158_k79#175 <= 20
 BW_capacity_of_substrate_link_42#83: 4 pi38_k36#14 + 4 pi43_k37#15
                                 + pi79_k52#26 + 5 pi146_k77#48
                                 + 4 pi151_k78#49 + 3 pi77_k51#152
                                 + pi156_k79#153 + 3 pi134_k74#172
                                 + pi20_k12#176 <= 20
 BW_capacity_of_substrate_link_43#84: 4 pi39_k36#139 + pi157_k79#168
                                 + 3 pi76_k51#170 + 4 pi153_k78#174
                                 + pi20_k12#176 <= 20
 BW_capacity_of_substrate_link_44#85: 4 pi38_k36#14 + 4 pi43_k37#15 <= 20
 c87#86:                         - 398 vnp2#0 + 58 pi0_k7#1 + 54 pi5_k8#2
                                 + 33 pi6_k9#3 - 944 vnp3#4 + 104 pi11_k10#5
                                 + 50 pi12_k11#6 + 48 pi17_k12#7
                                 + 167 pi22_k13#8 - 803 vnp7#9
                                 + 129 pi27_k25#10 + 130 pi32_k26#11
                                 + 189 pi33_k27#12 - 1166 vnp10#13
                                 + 101 pi38_k36#14 + 142 pi43_k37#15
                                 + 91 pi48_k38#16 + 17 pi53_k39#17
                                 + 142 pi54_k40#18 - 813 vnp12#19
                                 + 83 pi59_k47#20 + 80 pi64_k48#21
                                 + 116 pi65_k49#22 - 292 vnp13#23
                                 + 56 pi70_k50#24 + 72 pi74_k51#25
                                 + 23 pi79_k52#26 - 712 vnp15#27
                                 + 15 pi84_k57#28 + 103 pi85_k58#29
                                 + 62 pi90_k59#30 + 38 pi95_k60#31
                                 + 42 pi100_k61#32 - 667 vnp16#33
                                 + 133 pi105_k62#34 + 105 pi110_k63#35
                                 + 87 pi115_k64#36 + 47 pi120_k65#37
                                 - 410 vnp18#38 + 42 pi121_k70#39
                                 + 79 pi124_k71#40 + 103 pi129_k72#41
                                 - 433 vnp19#42 + 11 pi130_k73#43
                                 + 210 pi131_k74#44 + 115 pi136_k75#45
                                 - 1506 vnp20#46 + 46 pi141_k76#47
                                 + 102 pi146_k77#48 + 85 pi151_k78#49
                                 + 42 pi155_k79#50 + 94 pi160_k80#51
                                 + 138 pi164_k81#52 + 74 pi81_k52#53
                                 + 128 pi92_k59#54 + 108 pi122_k70#55
                                 + 85 pi128_k71#56 + 79 pi143_k76#57
                                 + 357 pi148_k77#58 + 259 pi162_k80#59
                                 + 57 pi72_k50#60 + 91 pi87_k58#61
                                 + 103 pi4_k7#62 + 164 pi25_k13#63
                                 + 166 pi46_k37#64 + 92 pi93_k59#65
                                 + 53 pi99_k60#66 + 40 pi101_k61#67
                                 + 201 pi133_k74#68 + 123 pi140_k75#69
                                 + 61 pi144_k76#70 + 159 pi36_k27#71
                                 + 166 pi45_k37#72 + 56 pi83_k52#73
                                 + 47 pi98_k60#74 + 267 pi150_k77#75
                                 + 144 pi31_k25#76 + 133 pi86_k58#77
                                 + 109 pi125_k71#78 + 97 pi1_k7#79
                                 + 44 pi8_k9#80 + 204 pi30_k25#81
                                 + 145 pi40_k36#82 + 42 pi96_k60#83
                                 + 89 pi126_k71#84 + 23 pi80_k52#85
                                 + 84 pi123_k70#86 + 121 pi127_k71#87
                                 + 102 pi147_k77#88 + 199 pi161_k80#89
                                 + 149 pi28_k25#90 + 239 pi34_k27#91
                                 + 146 pi49_k38#92 + 197 pi57_k40#93
                                 + 51 pi97_k60#94 + 121 pi3_k7#95
                                 + 54 pi10_k9#96 + 58 pi14_k11#97
                                 + 63 pi18_k12#98 + 57 pi102_k61#99
                                 + 145 pi152_k78#100 + 223 pi165_k81#101
                                 + 104 pi24_k13#102 + 174 pi37_k27#103
                                 + 111 pi132_k74#104 + 154 pi163_k80#105
                                 + 46 pi7_k9#106 + 153 pi42_k36#107
                                 + 146 pi52_k38#108 + 124 pi89_k58#109
                                 + 92 pi56_k40#110 + 175 pi113_k63#111
                                 + 238 pi44_k37#112 + 217 pi55_k40#113
                                 + 202 pi88_k58#114 + 71 pi117_k64#115
                                 + 169 pi29_k25#116 + 67 pi116_k64#117
                                 + 160 pi112_k63#118 + 137 pi62_k47#119
                                 + 133 pi138_k75#120 + 219 pi35_k27#121
                                 + 170 pi23_k13#122 + 217 pi58_k40#123
                                 + 175 pi111_k63#124 + 117 pi137_k75#125
                                 + 211 pi50_k38#126 + 116 pi63_k47#127
                                 + 73 pi119_k64#128 + 137 pi139_k75#129
                                 + 63 pi16_k11#130 + 88 pi94_k59#131
                                 + 55 pi103_k61#132 + 59 pi145_k76#133
                                 + 297 pi154_k78#134 + 288 pi167_k81#135
                                 + 112 pi2_k7#136 + 51 pi9_k9#137
                                 + 76 pi19_k12#138 + 197 pi39_k36#139
                                 + 171 pi51_k38#140 + 45 pi82_k52#141
                                 + 162 pi135_k74#142 + 212 pi149_k77#143
                                 + 37 pi13_k11#144 + 140 pi26_k13#145
                                 + 58 pi91_k59#146 + 40 pi104_k61#147
                                 + 44 pi142_k76#148 + 213 pi168_k81#149
                                 + 48 pi15_k11#150 + 59 pi21_k12#151
                                 + 78 pi77_k51#152 + 38 pi156_k79#153
                                 + 137 pi60_k47#154 + 188 pi67_k49#155
                                 + 223 pi107_k62#156 + 72 pi75_k51#157
                                 + 215 pi114_k63#158 + 56 pi71_k50#159
                                 + 246 pi47_k37#160 + 124 pi66_k49#161
                                 + 143 pi106_k62#162 + 75 pi118_k64#163
                                 + 89 pi61_k47#164 + 124 pi68_k49#165
                                 + 143 pi108_k62#166 + 189 pi41_k36#167
                                 + 44 pi157_k79#168 + 213 pi166_k81#169
                                 + 105 pi76_k51#170 + 71 pi159_k79#171
                                 + 129 pi134_k74#172 + 132 pi78_k51#173
                                 + 129 pi153_k78#174 + 49 pi158_k79#175
                                 + 47 pi20_k12#176 + 124 pi69_k49#177
                                 + 57 pi73_k50#178 + 143 pi109_k62#179 <= 0
Bounds
 0 <= vnp2#0 <= 1
 0 <= pi0_k7#1 <= 1
 0 <= pi5_k8#2 <= 1
 0 <= pi6_k9#3 <= 1
 0 <= vnp3#4 <= 1
 0 <= pi11_k10#5 <= 1
 0 <= pi12_k11#6 <= 1
 0 <= pi17_k12#7 <= 1
 0 <= pi22_k13#8 <= 1
 0 <= vnp7#9 <= 1
 0 <= pi27_k25#10 <= 1
 0 <= pi32_k26#11 <= 1
 0 <= pi33_k27#12 <= 1
 0 <= vnp10#13 <= 1
 0 <= pi38_k36#14 <= 1
 0 <= pi43_k37#15 <= 1
 0 <= pi48_k38#16 <= 1
 0 <= pi53_k39#17 <= 1
 0 <= pi54_k40#18 <= 1
 0 <= vnp12#19 <= 1
 0 <= pi59_k47#20 <= 1
 0 <= pi64_k48#21 <= 1
 0 <= pi65_k49#22 <= 1
 0 <= vnp13#23 <= 1
 0 <= pi70_k50#24 <= 1
 0 <= pi74_k51#25 <= 1
 0 <= pi79_k52#26 <= 1
 0 <= vnp15#27 <= 1
 0 <= pi84_k57#28 <= 1
 0 <= pi85_k58#29 <= 1
 0 <= pi90_k59#30 <= 1
 0 <= pi95_k60#31 <= 1
 0 <= pi100_k61#32 <= 1
 0 <= vnp16#33 <= 1
 0 <= pi105_k62#34 <= 1
 0 <= pi110_k63#35 <= 1
 0 <= pi115_k64#36 <= 1
 0 <= pi120_k65#37 <= 1
 0 <= vnp18#38 <= 1
 0 <= pi121_k70#39 <= 1
 0 <= pi124_k71#40 <= 1
 0 <= pi129_k72#41 <= 1
 0 <= vnp19#42 <= 1
 0 <= pi130_k73#43 <= 1
 0 <= pi131_k74#44 <= 1
 0 <= pi136_k75#45 <= 1
 0 <= vnp20#46 <= 1
 0 <= pi141_k76#47 <= 1
 0 <= pi146_k77#48 <= 1
 0 <= pi151_k78#49 <= 1
 0 <= pi155_k79#50 <= 1
 0 <= pi160_k80#51 <= 1
 0 <= pi164_k81#52 <= 1
 0 <= pi81_k52#53 <= 1
 0 <= pi92_k59#54 <= 1
 0 <= pi122_k70#55 <= 1
 0 <= pi128_k71#56 <= 1
 0 <= pi143_k76#57 <= 1
 0 <= pi148_k77#58 <= 1
 0 <= pi162_k80#59 <= 1
 0 <= pi72_k50#60 <= 1
 0 <= pi87_k58#61 <= 1
 0 <= pi4_k7#62 <= 1
 0 <= pi25_k13#63 <= 1
 0 <= pi46_k37#64 <= 1
 0 <= pi93_k59#65 <= 1
 0 <= pi99_k60#66 <= 1
 0 <= pi101_k61#67 <= 1
 0 <= pi133_k74#68 <= 1
 0 <= pi140_k75#69 <= 1
 0 <= pi144_k76#70 <= 1
 0 <= pi36_k27#71 <= 1
 0 <= pi45_k37#72 <= 1
 0 <= pi83_k52#73 <= 1
 0 <= pi98_k60#74 <= 1
 0 <= pi150_k77#75 <= 1
 0 <= pi31_k25#76 <= 1
 0 <= pi86_k58#77 <= 1
 0 <= pi125_k71#78 <= 1
 0 <= pi1_k7#79 <= 1
 0 <= pi8_k9#80 <= 1
 0 <= pi30_k25#81 <= 1
 0 <= pi40_k36#82 <= 1
 0 <= pi96_k60#83 <= 1
 0 <= pi126_k71#84 <= 1
 0 <= pi80_k52#85 <= 1
 0 <= pi123_k70#86 <= 1
 0 <= pi127_k71#87 <= 1
 0 <= pi147_k77#88 <= 1
 0 <= pi161_k80#89 <= 1
 0 <= pi28_k25#90 <= 1
 0 <= pi34_k27#91 <= 1
 0 <= pi49_k38#92 <= 1
 0 <= pi57_k40#93 <= 1
 0 <= pi97_k60#94 <= 1
 0 <= pi3_k7#95 <= 1
 0 <= pi10_k9#96 <= 1
 0 <= pi14_k11#97 <= 1
 0 <= pi18_k12#98 <= 1
 0 <= pi102_k61#99 <= 1
 0 <= pi152_k78#100 <= 1
 0 <= pi165_k81#101 <= 1
 0 <= pi24_k13#102 <= 1
 0 <= pi37_k27#103 <= 1
 0 <= pi132_k74#104 <= 1
 0 <= pi163_k80#105 <= 1
 0 <= pi7_k9#106 <= 1
 0 <= pi42_k36#107 <= 1
 0 <= pi52_k38#108 <= 1
 0 <= pi89_k58#109 <= 1
 0 <= pi56_k40#110 <= 1
 0 <= pi113_k63#111 <= 1
 0 <= pi44_k37#112 <= 1
 0 <= pi55_k40#113 <= 1
 0 <= pi88_k58#114 <= 1
 0 <= pi117_k64#115 <= 1
 0 <= pi29_k25#116 <= 1
 0 <= pi116_k64#117 <= 1
 0 <= pi112_k63#118 <= 1
 0 <= pi62_k47#119 <= 1
 0 <= pi138_k75#120 <= 1
 0 <= pi35_k27#121 <= 1
 0 <= pi23_k13#122 <= 1
 0 <= pi58_k40#123 <= 1
 0 <= pi111_k63#124 <= 1
 0 <= pi137_k75#125 <= 1
 0 <= pi50_k38#126 <= 1
 0 <= pi63_k47#127 <= 1
 0 <= pi119_k64#128 <= 1
 0 <= pi139_k75#129 <= 1
 0 <= pi16_k11#130 <= 1
 0 <= pi94_k59#131 <= 1
 0 <= pi103_k61#132 <= 1
 0 <= pi145_k76#133 <= 1
 0 <= pi154_k78#134 <= 1
 0 <= pi167_k81#135 <= 1
 0 <= pi2_k7#136 <= 1
 0 <= pi9_k9#137 <= 1
 0 <= pi19_k12#138 <= 1
 0 <= pi39_k36#139 <= 1
 0 <= pi51_k38#140 <= 1
 0 <= pi82_k52#141 <= 1
 0 <= pi135_k74#142 <= 1
 0 <= pi149_k77#143 <= 1
 0 <= pi13_k11#144 <= 1
 0 <= pi26_k13#145 <= 1
 0 <= pi91_k59#146 <= 1
 0 <= pi104_k61#147 <= 1
 0 <= pi142_k76#148 <= 1
 0 <= pi168_k81#149 <= 1
 0 <= pi15_k11#150 <= 1
 0 <= pi21_k12#151 <= 1
 0 <= pi77_k51#152 <= 1
 0 <= pi156_k79#153 <= 1
 0 <= pi60_k47#154 <= 1
 0 <= pi67_k49#155 <= 1
 0 <= pi107_k62#156 <= 1
 0 <= pi75_k51#157 <= 1
 0 <= pi114_k63#158 <= 1
 0 <= pi71_k50#159 <= 1
 0 <= pi47_k37#160 <= 1
 0 <= pi66_k49#161 <= 1
 0 <= pi106_k62#162 <= 1
 0 <= pi118_k64#163 <= 1
 0 <= pi61_k47#164 <= 1
 0 <= pi68_k49#165 <= 1
 0 <= pi108_k62#166 <= 1
 0 <= pi41_k36#167 <= 1
 0 <= pi157_k79#168 <= 1
 0 <= pi166_k81#169 <= 1
 0 <= pi76_k51#170 <= 1
 0 <= pi159_k79#171 <= 1
 0 <= pi134_k74#172 <= 1
 0 <= pi78_k51#173 <= 1
 0 <= pi153_k78#174 <= 1
 0 <= pi158_k79#175 <= 1
 0 <= pi20_k12#176 <= 1
 0 <= pi69_k49#177 <= 1
 0 <= pi73_k50#178 <= 1
 0 <= pi109_k62#179 <= 1
Binaries
 vnp2#0  pi0_k7#1  pi5_k8#2  pi6_k9#3  vnp3#4  pi11_k10#5  pi12_k11#6 
 pi17_k12#7  pi22_k13#8  vnp7#9  pi27_k25#10  pi32_k26#11  pi33_k27#12 
 vnp10#13  pi38_k36#14  pi43_k37#15  pi48_k38#16  pi53_k39#17  pi54_k40#18 
 vnp12#19  pi59_k47#20  pi64_k48#21  pi65_k49#22  vnp13#23  pi70_k50#24 
 pi74_k51#25  pi79_k52#26  vnp15#27  pi84_k57#28  pi85_k58#29  pi90_k59#30 
 pi95_k60#31  pi100_k61#32  vnp16#33  pi105_k62#34  pi110_k63#35  pi115_k64#36 
 pi120_k65#37  vnp18#38  pi121_k70#39  pi124_k71#40  pi129_k72#41  vnp19#42 
 pi130_k73#43  pi131_k74#44  pi136_k75#45  vnp20#46  pi141_k76#47 
 pi146_k77#48  pi151_k78#49  pi155_k79#50  pi160_k80#51  pi164_k81#52 
 pi81_k52#53  pi92_k59#54  pi122_k70#55  pi128_k71#56  pi143_k76#57 
 pi148_k77#58  pi162_k80#59  pi72_k50#60  pi87_k58#61  pi4_k7#62  pi25_k13#63 
 pi46_k37#64  pi93_k59#65  pi99_k60#66  pi101_k61#67  pi133_k74#68 
 pi140_k75#69  pi144_k76#70  pi36_k27#71  pi45_k37#72  pi83_k52#73 
 pi98_k60#74  pi150_k77#75  pi31_k25#76  pi86_k58#77  pi125_k71#78  pi1_k7#79 
 pi8_k9#80  pi30_k25#81  pi40_k36#82  pi96_k60#83  pi126_k71#84  pi80_k52#85 
 pi123_k70#86  pi127_k71#87  pi147_k77#88  pi161_k80#89  pi28_k25#90 
 pi34_k27#91  pi49_k38#92  pi57_k40#93  pi97_k60#94  pi3_k7#95  pi10_k9#96 
 pi14_k11#97  pi18_k12#98  pi102_k61#99  pi152_k78#100  pi165_k81#101 
 pi24_k13#102  pi37_k27#103  pi132_k74#104  pi163_k80#105  pi7_k9#106 
 pi42_k36#107  pi52_k38#108  pi89_k58#109  pi56_k40#110  pi113_k63#111 
 pi44_k37#112  pi55_k40#113  pi88_k58#114  pi117_k64#115  pi29_k25#116 
 pi116_k64#117  pi112_k63#118  pi62_k47#119  pi138_k75#120  pi35_k27#121 
 pi23_k13#122  pi58_k40#123  pi111_k63#124  pi137_k75#125  pi50_k38#126 
 pi63_k47#127  pi119_k64#128  pi139_k75#129  pi16_k11#130  pi94_k59#131 
 pi103_k61#132  pi145_k76#133  pi154_k78#134  pi167_k81#135  pi2_k7#136 
 pi9_k9#137  pi19_k12#138  pi39_k36#139  pi51_k38#140  pi82_k52#141 
 pi135_k74#142  pi149_k77#143  pi13_k11#144  pi26_k13#145  pi91_k59#146 
 pi104_k61#147  pi142_k76#148  pi168_k81#149  pi15_k11#150  pi21_k12#151 
 pi77_k51#152  pi156_k79#153  pi60_k47#154  pi67_k49#155  pi107_k62#156 
 pi75_k51#157  pi114_k63#158  pi71_k50#159  pi47_k37#160  pi66_k49#161 
 pi106_k62#162  pi118_k64#163  pi61_k47#164  pi68_k49#165  pi108_k62#166 
 pi41_k36#167  pi157_k79#168  pi166_k81#169  pi76_k51#170  pi159_k79#171 
 pi134_k74#172  pi78_k51#173  pi153_k78#174  pi158_k79#175  pi20_k12#176 
 pi69_k49#177  pi73_k50#178  pi109_k62#179 
End
